p cnf 45 156
1 2 3 4 5 0
1 2 3 -4 6 0
1 2 -3 4 7 0
1 2 -3 -4 9 0
1 -2 3 4 8 0
1 -2 3 -4 10 0
1 -2 -3 4 11 0
1 -2 -3 -4 13 0
-1 2 3 4 10 0
-1 2 3 -4 11 0
-1 2 -3 4 12 0
-1 2 -3 -4 6 0
14 15 16 17 1 2 3 4 18 0
14 15 16 17 1 2 3 -4 18 0
14 15 16 17 1 2 -3 4 18 0
14 15 16 17 1 2 -3 -4 18 0
14 15 16 17 1 -2 3 4 18 0
14 15 16 17 1 -2 3 -4 19 0
14 15 16 17 1 -2 -3 4 33 0
14 15 16 17 1 -2 -3 -4 18 0
14 15 16 17 -1 2 3 4 19 0
14 15 16 17 -1 2 3 -4 36 0
14 15 16 17 -1 2 -3 4 20 0
14 15 16 17 -1 2 -3 -4 21 0
14 15 16 -17 1 2 3 4 18 0
14 15 16 -17 1 2 3 -4 18 0
14 15 16 -17 1 2 -3 4 37 0
14 15 16 -17 1 2 -3 -4 22 0
14 15 16 -17 1 -2 3 4 18 0
14 15 16 -17 1 -2 3 -4 19 0
14 15 16 -17 1 -2 -3 4 33 0
14 15 16 -17 1 -2 -3 -4 23 0
14 15 16 -17 -1 2 3 4 19 0
14 15 16 -17 -1 2 3 -4 18 0
14 15 16 -17 -1 2 -3 4 38 0
14 15 16 -17 -1 2 -3 -4 21 0
14 15 -16 17 1 2 3 4 18 0
14 15 -16 17 1 2 3 -4 18 0
14 15 -16 17 1 2 -3 4 31 0
14 15 -16 17 1 2 -3 -4 36 0
14 15 -16 17 1 -2 3 4 18 0
14 15 -16 17 1 -2 3 -4 34 0
14 15 -16 17 1 -2 -3 4 18 0
14 15 -16 17 1 -2 -3 -4 18 0
14 15 -16 17 -1 2 3 4 34 0
14 15 -16 17 -1 2 3 -4 22 0
14 15 -16 17 -1 2 -3 4 24 0
14 15 -16 17 -1 2 -3 -4 18 0
14 15 -16 -17 1 2 3 4 18 0
14 15 -16 -17 1 2 3 -4 18 0
14 15 -16 -17 1 2 -3 4 31 0
14 15 -16 -17 1 2 -3 -4 18 0
14 15 -16 -17 1 -2 3 4 18 0
14 15 -16 -17 1 -2 3 -4 27 0
14 15 -16 -17 1 -2 -3 4 33 0
14 15 -16 -17 1 -2 -3 -4 25 0
14 15 -16 -17 -1 2 3 4 32 0
14 15 -16 -17 -1 2 3 -4 33 0
14 15 -16 -17 -1 2 -3 4 24 0
14 15 -16 -17 -1 2 -3 -4 18 0
14 -15 16 17 1 2 3 4 18 0
14 -15 16 17 1 2 3 -4 18 0
14 -15 16 17 1 2 -3 4 31 0
14 -15 16 17 1 2 -3 -4 36 0
14 -15 16 17 1 -2 3 4 18 0
14 -15 16 17 1 -2 3 -4 18 0
14 -15 16 17 1 -2 -3 4 22 0
14 -15 16 17 1 -2 -3 -4 31 0
14 -15 16 17 -1 2 3 4 27 0
14 -15 16 17 -1 2 3 -4 26 0
14 -15 16 17 -1 2 -3 4 24 0
14 -15 16 17 -1 2 -3 -4 45 0
14 -15 16 -17 1 2 3 4 39 0
14 -15 16 -17 1 2 3 -4 18 0
14 -15 16 -17 1 2 -3 4 31 0
14 -15 16 -17 1 2 -3 -4 22 0
14 -15 16 -17 1 -2 3 4 18 0
14 -15 16 -17 1 -2 3 -4 19 0
14 -15 16 -17 1 -2 -3 4 40 0
14 -15 16 -17 1 -2 -3 -4 18 0
14 -15 16 -17 -1 2 3 4 19 0
14 -15 16 -17 -1 2 3 -4 26 0
14 -15 16 -17 -1 2 -3 4 38 0
14 -15 16 -17 -1 2 -3 -4 18 0
14 -15 -16 17 1 2 3 4 18 0
14 -15 -16 17 1 2 3 -4 45 0
14 -15 -16 17 1 2 -3 4 23 0
14 -15 -16 17 1 2 -3 -4 18 0
14 -15 -16 17 1 -2 3 4 18 0
14 -15 -16 17 1 -2 3 -4 34 0
14 -15 -16 17 1 -2 -3 4 33 0
14 -15 -16 17 1 -2 -3 -4 23 0
14 -15 -16 17 -1 2 3 4 18 0
14 -15 -16 17 -1 2 3 -4 33 0
14 -15 -16 17 -1 2 -3 4 18 0
14 -15 -16 17 -1 2 -3 -4 18 0
14 -15 -16 -17 1 2 3 4 39 0
14 -15 -16 -17 1 2 3 -4 18 0
14 -15 -16 -17 1 2 -3 4 23 0
14 -15 -16 -17 1 2 -3 -4 18 0
14 -15 -16 -17 1 -2 3 4 28 0
14 -15 -16 -17 1 -2 3 -4 32 0
14 -15 -16 -17 1 -2 -3 4 22 0
14 -15 -16 -17 1 -2 -3 -4 18 0
14 -15 -16 -17 -1 2 3 4 34 0
14 -15 -16 -17 -1 2 3 -4 33 0
14 -15 -16 -17 -1 2 -3 4 38 0
14 -15 -16 -17 -1 2 -3 -4 18 0
-14 15 16 17 1 2 3 4 39 0
-14 15 16 17 1 2 3 -4 45 0
-14 15 16 17 1 2 -3 4 31 0
-14 15 16 17 1 2 -3 -4 36 0
-14 15 16 17 1 -2 3 4 29 0
-14 15 16 17 1 -2 3 -4 32 0
-14 15 16 17 1 -2 -3 4 18 0
-14 15 16 17 1 -2 -3 -4 31 0
-14 15 16 17 -1 2 3 4 19 0
-14 15 16 17 -1 2 3 -4 33 0
-14 15 16 17 -1 2 -3 4 18 0
-14 15 16 17 -1 2 -3 -4 18 0
-14 15 16 -17 1 2 3 4 39 0
-14 15 16 -17 1 2 3 -4 35 0
-14 15 16 -17 1 2 -3 4 41 0
-14 15 16 -17 1 2 -3 -4 22 0
-14 15 16 -17 1 -2 3 4 28 0
-14 15 16 -17 1 -2 3 -4 32 0
-14 15 16 -17 1 -2 -3 4 40 0
-14 15 16 -17 1 -2 -3 -4 18 0
-14 15 16 -17 -1 2 3 4 18 0
-14 15 16 -17 -1 2 3 -4 18 0
-14 15 16 -17 -1 2 -3 4 18 0
-14 15 16 -17 -1 2 -3 -4 18 0
-14 15 -16 17 1 2 3 4 42 0
-14 15 -16 17 1 2 3 -4 43 0
-14 15 -16 17 1 2 -3 4 31 0
-14 15 -16 17 1 2 -3 -4 36 0
-14 15 -16 17 1 -2 3 4 28 0
-14 15 -16 17 1 -2 3 -4 18 0
-14 15 -16 17 1 -2 -3 4 36 0
-14 15 -16 17 1 -2 -3 -4 18 0
-14 15 -16 17 -1 2 3 4 18 0
-14 15 -16 17 -1 2 3 -4 18 0
-14 15 -16 17 -1 2 -3 4 18 0
-14 15 -16 17 -1 2 -3 -4 18 0
-14 15 -16 -17 1 2 3 4 30 0
-14 15 -16 -17 1 2 3 -4 44 0
-14 15 -16 -17 1 2 -3 4 31 0
-14 15 -16 -17 1 2 -3 -4 18 0
-14 15 -16 -17 1 -2 3 4 18 0
-14 15 -16 -17 1 -2 3 -4 18 0
-14 15 -16 -17 1 -2 -3 4 18 0
-14 15 -16 -17 1 -2 -3 -4 18 0
-14 15 -16 -17 -1 2 3 4 18 0
-14 15 -16 -17 -1 2 3 -4 18 0
-14 15 -16 -17 -1 2 -3 4 18 0
-14 15 -16 -17 -1 2 -3 -4 18 0
